c Output_time 26.03.2020 18:13:12_+0100 1585242792736353055
c ** Program information **
c program_name                          "QBRG_debug"
c version                               "0.3.20"
c date                                  "25.3.2020"
c gid_id                                "673970833836058123f633335630c185360d632e"
c author                                "Oliver Kullmann"
c url                                   "https://github.com/OKullmann/oklibrary/blob/master/Satisfiability/Transformers/Generators/Random/QBRG.cpp"
c ** Machine information **
c machine_name                          "chyna-Lenovo-G50-70"
c bogomips                              3791.08
c ** Compilation information **
c compiler_version                      "g++ 7.5.0"
c compilation_date                      "Mar_26_2020 11:16:30"
c compilation_options                   "--std=c++17 -pedantic -fmax-errors=5 -Wall -Wextra -g -D_GLIBCXX_DEBUG"
c NDEBUG                                0
c OPTIMIZE                              0
c ** Parameters **
c command-line                          "./QBRG_debug" "e40 a40 40" "261*1,1|2-2,1|3-3,1" "" "1,t" ""
c output                                "QuBlRaGe_120_261_1585242792736005877.qdimacs"
c options                               "filtered,renamed"
c num_quantifier_blocks                 3
c  quantifier_blocks                    1:e1-40 2:a41-80 3:e81-120
c num_clause-blocks                     1
c  clause-blocks                        261 * {1-40,1,1/2} | {41-80,1,1/2} | {81-120,1,1/2}
c num_e-seeds                           30+2=32
c  e-seeds                              1 0 1 0 4 120 2 40 1 40 0 40 1 261 3 1 1 1 1 2 2 2 1 1 2 3 3 1 1 2 1 1585242792736005338
p cnf 120 261
e 1 2 3 4 5 6 7 8 9 10 11 12 13 14 15 16 17 18 19 20 21 22 23 24 25 26 27 28 29 30 31 32 33 34 35 36 37 38 39 40 0
a 41 42 43 44 45 46 47 48 49 50 51 52 53 54 55 56 57 58 59 60 61 62 63 64 65 66 67 68 69 70 71 72 73 74 75 76 77 78 79 80 0
e 81 82 83 84 85 86 87 88 89 90 91 92 93 94 95 96 97 98 99 100 101 102 103 104 105 106 107 108 109 110 111 112 113 114 115 116 117 118 119 120 0
14 -50 -81 0
16 -51 -81 0
-28 -54 -81 0
2 58 -81 0
-7 -75 -81 0
15 45 81 0
35 -67 81 0
-11 -71 81 0
-40 -78 81 0
-2 78 81 0
27 -79 81 0
-1 -41 -82 0
-4 -48 82 0
39 64 82 0
-31 -79 -83 0
21 -44 83 0
-12 53 83 0
38 -69 83 0
-15 -74 83 0
8 77 83 0
13 -65 -84 0
16 -79 -84 0
13 44 84 0
-13 -57 84 0
25 68 84 0
36 -71 84 0
27 -76 84 0
13 -77 84 0
26 -51 -85 0
23 -65 -85 0
28 79 -85 0
-16 -80 -85 0
35 -64 85 0
-21 -79 85 0
29 -55 -86 0
38 79 -86 0
27 53 86 0
35 -76 86 0
-18 -59 -87 0
10 -61 -87 0
-25 -64 -87 0
-28 -72 -87 0
16 74 -87 0
-29 52 87 0
-20 58 87 0
-21 60 87 0
-28 -66 87 0
-19 68 87 0
8 69 87 0
27 70 87 0
35 41 -88 0
-7 -47 -88 0
-2 -71 -88 0
-20 -67 88 0
18 59 -89 0
-10 67 -89 0
-37 78 -89 0
-3 -42 89 0
-34 -48 89 0
34 49 89 0
-34 54 89 0
6 64 -90 0
-25 -70 -90 0
-26 -77 -90 0
30 -47 90 0
15 53 90 0
13 -70 90 0
-8 78 90 0
21 -52 -91 0
40 -63 -91 0
-33 80 -91 0
-9 -59 91 0
-38 -71 91 0
23 50 -92 0
10 -54 92 0
-4 -59 92 0
26 -59 92 0
-24 59 92 0
-31 45 -93 0
2 76 -93 0
-26 78 -93 0
-23 76 93 0
38 -79 93 0
-8 45 -94 0
9 51 -94 0
-31 52 -94 0
-33 59 -94 0
29 66 -94 0
-10 79 -94 0
-28 54 94 0
-3 -67 94 0
-7 -72 94 0
34 80 94 0
-40 43 -95 0
-1 55 -95 0
-27 55 -95 0
-14 -68 -95 0
-13 69 -95 0
-7 -70 -95 0
26 -47 95 0
-23 -52 95 0
-23 -65 95 0
-16 -61 -96 0
-10 61 -96 0
26 50 96 0
12 -59 -97 0
26 -60 -97 0
1 -44 97 0
38 58 -98 0
8 43 98 0
-9 48 98 0
-25 -56 98 0
2 58 98 0
40 -72 98 0
-20 -79 -99 0
-29 -42 99 0
38 -66 99 0
11 72 -100 0
-36 68 100 0
-17 70 100 0
14 -75 100 0
24 -80 100 0
40 -48 -101 0
32 -65 -101 0
-36 -68 -101 0
-26 -77 -101 0
-32 -77 -101 0
31 46 101 0
-13 47 101 0
36 53 101 0
-4 -72 101 0
-33 -78 101 0
20 79 101 0
-7 -45 -102 0
-26 49 -102 0
3 -57 -102 0
-26 59 -102 0
39 -68 -102 0
14 -70 -102 0
-40 -78 -102 0
12 55 102 0
29 -57 102 0
-8 76 102 0
-24 -54 -103 0
-17 72 -103 0
30 -74 -103 0
-32 41 103 0
4 47 103 0
31 -49 103 0
19 64 103 0
28 -72 103 0
3 73 103 0
-13 43 -104 0
-33 44 -104 0
-7 -58 -104 0
14 42 104 0
-25 -48 104 0
-9 58 104 0
33 -66 104 0
-31 72 104 0
3 -50 -105 0
29 -63 -105 0
10 64 -105 0
30 -68 -105 0
-35 41 105 0
19 -51 -106 0
1 -63 -106 0
9 76 -106 0
12 -41 106 0
-2 44 106 0
5 48 106 0
31 -53 -107 0
-36 -54 -107 0
19 72 -107 0
4 41 107 0
-9 -60 107 0
7 -53 -108 0
-15 53 -108 0
35 54 -108 0
30 58 -108 0
31 73 -108 0
-13 -74 -108 0
-7 47 108 0
-35 49 108 0
-16 66 108 0
-19 68 108 0
-12 -44 -109 0
12 57 -109 0
31 62 -109 0
-24 75 -109 0
8 -80 -109 0
-30 -50 109 0
-18 -64 109 0
-31 69 109 0
34 80 109 0
40 44 -110 0
19 -64 -110 0
-4 71 110 0
-3 -74 110 0
35 77 110 0
-11 47 -111 0
37 -76 -111 0
-23 -47 111 0
-13 65 111 0
-26 -68 111 0
24 43 -112 0
16 49 -112 0
29 -54 -112 0
-15 -46 112 0
7 -49 112 0
-22 -51 112 0
-16 -41 -113 0
-28 -47 -113 0
-26 55 -113 0
-40 55 -113 0
40 -61 -113 0
16 67 -113 0
-37 -42 113 0
-27 -63 113 0
-40 -68 113 0
32 49 -114 0
30 -54 -114 0
-9 -70 -114 0
-39 74 -114 0
28 79 -114 0
-32 -60 114 0
-2 46 -115 0
13 46 -115 0
-16 -48 -115 0
27 48 -115 0
23 58 -115 0
-4 69 -115 0
33 -45 115 0
-19 -47 -116 0
-14 47 116 0
-27 -73 116 0
19 48 -117 0
-40 -58 -117 0
9 -68 -117 0
23 75 -117 0
-33 47 117 0
-27 56 117 0
29 -51 -118 0
-33 -54 -118 0
7 57 -118 0
2 41 118 0
11 56 118 0
15 -73 118 0
26 53 -119 0
-38 -78 -119 0
15 -41 119 0
-27 76 119 0
24 -55 -120 0
-14 -59 -120 0
29 -69 -120 0
6 72 -120 0
25 72 -120 0
39 44 120 0
-33 55 120 0
30 56 120 0
13 -68 120 0
